NAME : mr51
COMMENT : 51-city problem (DISC)
TYPE : TSP
DIMENSION : 51
EDGE_WEIGHT_TYPE : EUC_2D
NODE_COORD_SECTION
1 68 20
2 5 86
3 35 69
4 65 11
5 29 33
6 95 59
7 16 2
8 39 22
9 59 70
10 49 28
11 18 38
12 22 5
13 65 8
14 25 26
15 42 3
16 5 18
17 33 47
18 30 81
19 45 66
20 7 91
21 76 64
22 73 54
23 57 32
24 72 12
25 59 68
26 64 51
27 80 49
28 87 61
29 35 52
30 31 89
31 61 13
32 38 21
33 87 90
34 72 1
35 43 36
36 88 1
37 2 70
38 46 54
39 17 14
40 85 66
41 13 69
42 75 19
43 85 41
44 18 61
45 28 53
46 93 70
47 65 21
48 32 45
49 42 89
50 17 80
51 20 15
EOF
